interface I
{
  in void a();
  out void b();
  behaviour
  {
    on a: b;
  }
}

component indirect_out
{
  provides I p;
  requires I r;
  behaviour
  {
    on p.a(): r.a();
    on r.b(): p.b();
  }
}
